lp_solutions/grafo115.30.sol
# Objective value = 10
c_e1e27e28 1
c_e3e5e24 1
c_e3e5e26 0
c_e3e24e26 0
c_e5e24e26 1
c_e7e10e15 0
c_e27e12e9 0
c_e7e8e9 1
c_e7e8e22 0
c_e7e9e22 0
c_e8e9e22 1
c_e16e10e11 1
c_e16e10e18 0
c_e16e10e30 0
c_e16e11e18 0
c_e16e11e30 0
c_e16e18e30 0
c_e10e11e18 1
c_e10e11e30 0
c_e10e18e30 0
c_e11e18e30 1
c_e15e13e14 1
c_e23e20e19 1
x_e1e27 1
x_e27e28 1
x_e1e28 1
x_e27e16 1
x_e1e16 1
x_e27e3 1
x_e1e3 1
x_e27e5 1
x_e1e5 1
x_e27e24 1
x_e1e24 1
x_e27e26 1
x_e1e26 1
x_e27e12 1
x_e1e12 1
x_e27e23 1
x_e1e23 1
x_e27e7 1
x_e1e7 1
x_e27e10 1
x_e1e10 1
x_e27e15 1
x_e1e15 1
x_e27e8 1
x_e1e8 1
x_e27e9 1
x_e1e9 1
x_e27e11 1
x_e1e11 1
x_e27e22 1
x_e1e22 1
x_e27e20 1
x_e1e20 1
x_e27e13 1
x_e1e13 1
x_e27e14 1
x_e1e14 1
x_e27e18 1
x_e1e18 1
x_e27e30 1
x_e1e30 1
x_e27e19 1
x_e1e19 1
x_e28e16 1
x_e28e3 1
x_e28e5 1
x_e28e24 1
x_e28e26 1
x_e28e12 1
x_e28e23 1
x_e28e7 1
x_e28e10 1
x_e28e15 1
x_e28e8 1
x_e28e9 1
x_e28e11 1
x_e28e22 1
x_e28e20 1
x_e28e13 1
x_e28e14 1
x_e28e18 1
x_e28e30 1
x_e28e19 1
x_e16e3 1
x_e16e5 1
x_e16e24 1
x_e16e26 1
x_e16e12 1
x_e16e23 1
x_e16e7 1
x_e16e10 1
x_e16e15 1
x_e16e8 1
x_e16e9 1
x_e16e11 1
x_e16e22 1
x_e16e20 1
x_e16e13 1
x_e16e14 1
x_e16e18 1
x_e16e30 1
x_e16e19 1
x_e3e5 1
x_e3e24 1
x_e3e26 1
x_e3e12 0
x_e3e23 0
x_e3e7 0
x_e3e10 0
x_e3e15 0
x_e3e8 0
x_e3e9 0
x_e3e11 0
x_e3e22 0
x_e3e20 0
x_e3e13 0
x_e3e14 0
x_e3e18 0
x_e3e30 0
x_e3e19 0
x_e5e24 1
x_e5e26 1
x_e5e12 0
x_e5e23 0
x_e5e7 0
x_e5e10 0
x_e5e15 0
x_e5e8 0
x_e5e9 0
x_e5e11 0
x_e5e22 0
x_e5e20 0
x_e5e13 0
x_e5e14 0
x_e5e18 0
x_e5e30 0
x_e5e19 0
x_e24e26 1
x_e24e12 0
x_e24e23 0
x_e24e7 0
x_e24e10 0
x_e24e15 0
x_e24e8 0
x_e24e9 0
x_e24e11 0
x_e24e22 0
x_e24e20 0
x_e24e13 0
x_e24e14 0
x_e24e18 0
x_e24e30 0
x_e24e19 0
x_e26e12 0
x_e26e23 0
x_e26e7 0
x_e26e10 0
x_e26e15 0
x_e26e8 0
x_e26e9 0
x_e26e11 0
x_e26e22 0
x_e26e20 0
x_e26e13 0
x_e26e14 0
x_e26e18 0
x_e26e30 0
x_e26e19 0
x_e12e23 1
x_e12e7 1
x_e12e10 0
x_e12e15 0
x_e12e8 1
x_e12e9 1
x_e12e11 0
x_e12e22 1
x_e12e20 1
x_e12e13 0
x_e12e14 0
x_e12e18 0
x_e12e30 0
x_e12e19 1
x_e23e7 0
x_e23e10 0
x_e23e15 0
x_e23e8 0
x_e23e9 0
x_e23e11 0
x_e23e22 0
x_e23e20 1
x_e23e13 0
x_e23e14 0
x_e23e18 0
x_e23e30 0
x_e23e19 1
x_e7e10 0
x_e7e15 0
x_e7e8 1
x_e7e9 1
x_e7e11 0
x_e7e22 1
x_e7e20 1
x_e7e13 0
x_e7e14 0
x_e7e18 0
x_e7e30 0
x_e7e19 1
x_e10e15 1
x_e10e8 1
x_e10e9 1
x_e10e11 1
x_e10e22 1
x_e10e20 1
x_e10e13 1
x_e10e14 1
x_e10e18 1
x_e10e30 1
x_e10e19 1
x_e15e8 1
x_e15e9 1
x_e15e11 0
x_e15e22 1
x_e15e20 1
x_e15e13 1
x_e15e14 1
x_e15e18 0
x_e15e30 0
x_e15e19 1
x_e8e9 1
x_e8e11 0
x_e8e22 1
x_e8e20 1
x_e8e13 0
x_e8e14 0
x_e8e18 0
x_e8e30 0
x_e8e19 1
x_e9e11 0
x_e9e22 1
x_e9e20 1
x_e9e13 0
x_e9e14 0
x_e9e18 0
x_e9e30 0
x_e9e19 1
x_e11e22 1
x_e11e20 1
x_e11e13 1
x_e11e14 1
x_e11e18 1
x_e11e30 1
x_e11e19 1
x_e22e20 1
x_e22e13 0
x_e22e14 0
x_e22e18 0
x_e22e30 0
x_e22e19 1
x_e20e13 0
x_e20e14 0
x_e20e18 0
x_e20e30 0
x_e20e19 1
x_e13e14 1
x_e13e18 0
x_e13e30 0
x_e13e19 1
x_e14e18 0
x_e14e30 0
x_e14e19 1
x_e18e30 1
x_e18e19 1
x_e30e19 1
y_n0n1 0
y_n1n2 1
y_n0n2 1
y_n1n3 1
y_n0n3 1
y_n1n4 1
y_n0n4 1
y_n1n5 1
y_n0n5 0
y_n1n6 1
y_n0n6 0
y_n1n7 1
y_n0n7 0
y_n1n8 1
y_n0n8 0
y_n1n9 1
y_n0n9 0
y_n1n10 1
y_n0n10 0
y_n1n11 1
y_n0n11 0
y_n1n12 1
y_n0n12 0
y_n1n13 1
y_n0n13 1
y_n1n14 1
y_n0n14 0
y_n1n15 1
y_n0n15 0
y_n1n16 0
y_n0n16 0
y_n1n17 1
y_n0n17 0
y_n1n18 0
y_n0n18 0
y_n1n19 1
y_n0n19 1
y_n1n20 1
y_n0n20 0
y_n1n21 1
y_n0n21 1
y_n1n22 1
y_n0n22 0
y_n1n23 1
y_n0n23 0
y_n1n24 1
y_n0n24 0
y_n1n25 1
y_n0n25 0
y_n1n26 0
y_n0n26 0
y_n1n27 1
y_n0n27 0
y_n1n28 1
y_n0n28 0
y_n1n29 1
y_n0n29 0
y_n2n3 0
y_n2n4 0
y_n2n5 0
y_n2n6 0
y_n2n7 0
y_n2n8 0
y_n2n9 0
y_n2n10 0
y_n2n11 0
y_n2n12 0
y_n2n13 0
y_n2n14 0
y_n2n15 0
y_n2n16 0
y_n2n17 0
y_n2n18 0
y_n2n19 0
y_n2n20 0
y_n2n21 0
y_n2n22 0
y_n2n23 0
y_n2n24 0
y_n2n25 0
y_n2n26 0
y_n2n27 0
y_n2n28 0
y_n2n29 0
y_n3n4 0
y_n3n5 0
y_n3n6 0
y_n3n7 0
y_n3n8 0
y_n3n9 0
y_n3n10 0
y_n3n11 0
y_n3n12 0
y_n3n13 0
y_n3n14 0
y_n3n15 0
y_n3n16 0
y_n3n17 0
y_n3n18 0
y_n3n19 0
y_n3n20 0
y_n3n21 0
y_n3n22 0
y_n3n23 0
y_n3n24 0
y_n3n25 0
y_n3n26 0
y_n3n27 0
y_n3n28 0
y_n3n29 0
y_n4n5 0
y_n4n6 0
y_n4n7 0
y_n4n8 0
y_n4n9 0
y_n4n10 0
y_n4n11 0
y_n4n12 0
y_n4n13 1
y_n4n14 0
y_n4n15 0
y_n4n16 0
y_n4n17 0
y_n4n18 0
y_n4n19 1
y_n4n20 0
y_n4n21 1
y_n4n22 0
y_n4n23 0
y_n4n24 0
y_n4n25 0
y_n4n26 0
y_n4n27 0
y_n4n28 0
y_n4n29 0
y_n5n6 0
y_n5n7 0
y_n5n8 0
y_n5n9 0
y_n5n10 0
y_n5n11 0
y_n5n12 0
y_n5n13 1
y_n5n14 0
y_n5n15 0
y_n5n16 0
y_n5n17 0
y_n5n18 0
y_n5n19 1
y_n5n20 0
y_n5n21 1
y_n5n22 0
y_n5n23 0
y_n5n24 0
y_n5n25 0
y_n5n26 0
y_n5n27 0
y_n5n28 0
y_n5n29 0
y_n6n7 1
y_n6n8 0
y_n6n9 0
y_n6n10 0
y_n6n11 0
y_n6n12 0
y_n6n13 1
y_n6n14 1
y_n6n15 0
y_n6n16 0
y_n6n17 0
y_n6n18 0
y_n6n19 1
y_n6n20 0
y_n6n21 1
y_n6n22 0
y_n6n23 1
y_n6n24 0
y_n6n25 0
y_n6n26 0
y_n6n27 0
y_n6n28 0
y_n6n29 0
y_n7n8 0
y_n7n9 0
y_n7n10 0
y_n7n11 0
y_n7n12 0
y_n7n13 1
y_n7n14 0
y_n7n15 0
y_n7n16 0
y_n7n17 0
y_n7n18 0
y_n7n19 1
y_n7n20 0
y_n7n21 1
y_n7n22 0
y_n7n23 0
y_n7n24 0
y_n7n25 0
y_n7n26 0
y_n7n27 0
y_n7n28 0
y_n7n29 0
y_n8n9 1
y_n8n10 1
y_n8n11 1
y_n8n12 1
y_n8n13 1
y_n8n14 1
y_n8n15 1
y_n8n16 0
y_n8n17 1
y_n8n18 0
y_n8n19 1
y_n8n20 1
y_n8n21 1
y_n8n22 0
y_n8n23 1
y_n8n24 0
y_n8n25 1
y_n8n26 0
y_n8n27 0
y_n8n28 1
y_n8n29 1
y_n9n10 1
y_n9n11 0
y_n9n12 0
y_n9n13 1
y_n9n14 1
y_n9n15 0
y_n9n16 0
y_n9n17 0
y_n9n18 0
y_n9n19 1
y_n9n20 0
y_n9n21 1
y_n9n22 0
y_n9n23 1
y_n9n24 0
y_n9n25 1
y_n9n26 0
y_n9n27 0
y_n9n28 1
y_n9n29 0
y_n10n11 0
y_n10n12 0
y_n10n13 1
y_n10n14 1
y_n10n15 0
y_n10n16 0
y_n10n17 0
y_n10n18 0
y_n10n19 1
y_n10n20 0
y_n10n21 1
y_n10n22 0
y_n10n23 1
y_n10n24 0
y_n10n25 1
y_n10n26 0
y_n10n27 0
y_n10n28 1
y_n10n29 0
y_n11n12 1
y_n11n13 1
y_n11n14 1
y_n11n15 1
y_n11n16 0
y_n11n17 1
y_n11n18 0
y_n11n19 1
y_n11n20 1
y_n11n21 1
y_n11n22 0
y_n11n23 1
y_n11n24 0
y_n11n25 1
y_n11n26 0
y_n11n27 0
y_n11n28 1
y_n11n29 1
y_n12n13 1
y_n12n14 1
y_n12n15 0
y_n12n16 0
y_n12n17 0
y_n12n18 0
y_n12n19 1
y_n12n20 0
y_n12n21 1
y_n12n22 0
y_n12n23 1
y_n12n24 0
y_n12n25 1
y_n12n26 0
y_n12n27 0
y_n12n28 1
y_n12n29 0
y_n13n14 0
y_n13n15 0
y_n13n16 0
y_n13n17 0
y_n13n18 0
y_n13n19 1
y_n13n20 0
y_n13n21 1
y_n13n22 0
y_n13n23 0
y_n13n24 0
y_n13n25 0
y_n13n26 0
y_n13n27 0
y_n13n28 0
y_n13n29 0
y_n14n15 0
y_n14n16 0
y_n14n17 0
y_n14n18 0
y_n14n19 1
y_n14n20 0
y_n14n21 1
y_n14n22 0
y_n14n23 1
y_n14n24 0
y_n14n25 0
y_n14n26 0
y_n14n27 0
y_n14n28 0
y_n14n29 0
y_n15n16 0
y_n15n17 1
y_n15n18 0
y_n15n19 1
y_n15n20 0
y_n15n21 1
y_n15n22 0
y_n15n23 1
y_n15n24 0
y_n15n25 1
y_n15n26 0
y_n15n27 0
y_n15n28 1
y_n15n29 0
y_n16n17 1
y_n16n18 1
y_n16n19 1
y_n16n20 1
y_n16n21 1
y_n16n22 1
y_n16n23 1
y_n16n24 1
y_n16n25 1
y_n16n26 1
y_n16n27 1
y_n16n28 1
y_n16n29 1
y_n17n18 0
y_n17n19 1
y_n17n20 0
y_n17n21 1
y_n17n22 0
y_n17n23 1
y_n17n24 0
y_n17n25 1
y_n17n26 0
y_n17n27 0
y_n17n28 1
y_n17n29 0
y_n18n19 1
y_n18n20 1
y_n18n21 1
y_n18n22 1
y_n18n23 1
y_n18n24 1
y_n18n25 1
y_n18n26 1
y_n18n27 1
y_n18n28 1
y_n18n29 1
y_n19n20 0
y_n19n21 1
y_n19n22 0
y_n19n23 0
y_n19n24 0
y_n19n25 0
y_n19n26 0
y_n19n27 0
y_n19n28 0
y_n19n29 0
y_n20n21 1
y_n20n22 0
y_n20n23 1
y_n20n24 0
y_n20n25 1
y_n20n26 0
y_n20n27 0
y_n20n28 1
y_n20n29 1
y_n21n22 0
y_n21n23 0
y_n21n24 0
y_n21n25 0
y_n21n26 0
y_n21n27 0
y_n21n28 0
y_n21n29 0
y_n22n23 1
y_n22n24 0
y_n22n25 1
y_n22n26 0
y_n22n27 0
y_n22n28 1
y_n22n29 1
y_n23n24 0
y_n23n25 0
y_n23n26 0
y_n23n27 0
y_n23n28 0
y_n23n29 0
y_n24n25 1
y_n24n26 0
y_n24n27 0
y_n24n28 1
y_n24n29 1
y_n25n26 0
y_n25n27 0
y_n25n28 0
y_n25n29 0
y_n26n27 1
y_n26n28 1
y_n26n29 1
y_n27n28 1
y_n27n29 1
y_n28n29 0
pos_e1 0
pos_e27 1
pos_e28 2
pos_e16 3
pos_e3 19
pos_e5 20
pos_e24 21
pos_e26 22
pos_e12 11
pos_e23 16
pos_e7 12
pos_e10 4
pos_e15 8
pos_e8 13
pos_e9 14
pos_e11 5
pos_e22 15
pos_e20 17
pos_e13 9
pos_e14 10
pos_e18 6
pos_e30 7
pos_e19 18
z_e1e27 1
z_e1e28 0
z_e27e1 0
z_e27e28 1
z_e28e1 0
z_e28e27 0
z_e3e5 1
z_e3e24 0
z_e3e26 0
z_e5e3 0
z_e5e24 1
z_e5e26 0
z_e24e3 0
z_e24e5 0
z_e24e26 1
z_e26e3 0
z_e26e5 0
z_e26e24 0
z_e7e10 0
z_e7e15 0
z_e10e7 0
z_e10e15 0
z_e15e7 0
z_e15e10 0
z_e27e12 0
z_e27e9 0
z_e12e27 0
z_e12e9 0
z_e9e27 0
z_e9e12 0
z_e7e8 1
z_e7e9 0
z_e7e22 0
z_e8e7 0
z_e8e9 1
z_e8e22 0
z_e9e7 0
z_e9e8 0
z_e9e22 1
z_e22e7 0
z_e22e8 0
z_e22e9 0
z_e16e10 1
z_e16e11 0
z_e16e18 0
z_e16e30 0
z_e10e16 0
z_e10e11 1
z_e10e18 0
z_e10e30 0
z_e11e16 0
z_e11e10 0
z_e11e18 1
z_e11e30 0
z_e18e16 0
z_e18e10 0
z_e18e11 0
z_e18e30 1
z_e30e16 0
z_e30e10 0
z_e30e11 0
z_e30e18 0
z_e15e13 1
z_e15e14 0
z_e13e15 0
z_e13e14 1
z_e14e15 0
z_e14e13 0
z_e23e20 1
z_e23e19 0
z_e20e23 0
z_e20e19 1
z_e19e23 0
z_e19e20 0
