lp_solutions/grafo115.30.log

Gurobi 11.0.1 (mac64[x86], gurobi_cl) logging started Sat Aug  3 00:27:56 2024

Set parameter Username
Set parameter TimeLimit to value 100
Set parameter LogFile to value "./lp_solutions/grafo115.30.log"
Using license file /Users/sara/gurobi.lic
Academic license - for non-commercial use only - expires 2025-05-12

Gurobi Optimizer version 11.0.1 build v11.0.1rc0 (mac64[x86] - Darwin 21.6.0 21G651)
Copyright (c) 2024, Gurobi Optimization, LLC

Read LP format model from file ./lp_problems/grafo115.30.lp
Reading time = 0.05 seconds
: 12096 rows, 808 columns, 36406 nonzeros

CPU model: Intel(R) Core(TM) i5-1038NG7 CPU @ 2.00GHz
Thread count: 4 physical cores, 8 logical processors, using up to 8 threads

Optimize a model with 12096 rows, 808 columns and 36406 nonzeros
Model fingerprint: 0xe3adf752
Variable types: 23 continuous, 785 integer (785 binary)
Coefficient statistics:
  Matrix range     [1e+00, 5e+01]
  Objective range  [1e+00, 1e+00]
  Bounds range     [1e+00, 1e+00]
  RHS range        [1e+00, 5e+01]
Found heuristic solution: objective -0.0000000
Presolve removed 277 rows and 61 columns
Presolve time: 0.59s
Presolved: 11819 rows, 747 columns, 35841 nonzeros
Variable types: 0 continuous, 747 integer (724 binary)

Root relaxation: objective 2.268080e+01, 1659 iterations, 1.85 seconds (0.15 work units)

    Nodes    |    Current Node    |     Objective Bounds      |     Work
 Expl Unexpl |  Obj  Depth IntInf | Incumbent    BestBd   Gap | It/Node Time

     0     0   22.68080    0  162   -0.00000   22.68080      -     -    4s
H    0     0                       3.0000000   22.68080   656%     -    4s
     0     0   22.68080    0  162    3.00000   22.68080   656%     -    4s
     0     0   22.68080    0  166    3.00000   22.68080   656%     -    5s
H    0     0                       4.0000000   22.68080   467%     -    5s
     0     0   17.92928    0  180    4.00000   17.92928   348%     -    6s
H    0     0                       5.0000000   17.62338   252%     -    6s
H    0     0                       6.0000000   15.83333   164%     -    7s
     0     0   15.83333    0  161    6.00000   15.83333   164%     -    7s
     0     0   15.33333    0  134    6.00000   15.33333   156%     -    7s
     0     0   15.33333    0  131    6.00000   15.33333   156%     -    7s
     0     0   15.00000    0  118    6.00000   15.00000   150%     -    7s
     0     0   14.97727    0  119    6.00000   14.97727   150%     -    8s
     0     0   14.97727    0  124    6.00000   14.97727   150%     -    9s
     0     0   14.97727    0  118    6.00000   14.97727   150%     -    9s
     0     0   14.97727    0   74    6.00000   14.97727   150%     -   10s
     0     0   14.97727    0   82    6.00000   14.97727   150%     -   10s
     0     0   14.97727    0  133    6.00000   14.97727   150%     -   11s
     0     0   14.97727    0  133    6.00000   14.97727   150%     -   11s
     0     0   14.97727    0   86    6.00000   14.97727   150%     -   12s
     0     0   14.97727    0   90    6.00000   14.97727   150%     -   13s
     0     0   14.97727    0   89    6.00000   14.97727   150%     -   13s
     0     0   14.97727    0   89    6.00000   14.97727   150%     -   14s
     0     2   14.95652    0   89    6.00000   14.95652   149%     -   14s
     3     8   14.95652    2   76    6.00000   14.95652   149%   279   15s
    53    40   11.00000   14  127    6.00000   14.95652   149%   180   20s
H   59    44                       7.0000000   14.95652   114%   196   20s
   112    75   10.92063   19  175    7.00000   14.95652   114%   262   25s
H  128    88                      10.0000000   14.95652  49.6%   239   26s
   194   115   12.95238    9  134   10.00000   14.93271  49.3%   220   30s
   274   157   11.00000   23  127   10.00000   14.93271  49.3%   195   36s
   319   171 infeasible   28        10.00000   14.93271  49.3%   190   40s
   534   200   12.45652    9   53   10.00000   13.90890  39.1%   166   45s
   764   185 infeasible   11        10.00000   12.00000  20.0%   161   50s

Cutting planes:
  Gomory: 6
  Cover: 12
  Implied bound: 1
  Clique: 1
  MIR: 23
  Inf proof: 52
  Zero half: 10
  RLT: 19

Explored 1095 nodes (174842 simplex iterations) in 54.18 seconds (13.03 work units)
Thread count was 8 (of 8 available processors)

Solution count 8: 10 7 6 ... -0

Optimal solution found (tolerance 1.00e-04)
Best objective 1.000000000000e+01, best bound 1.000000000000e+01, gap 0.0000%

Wrote result file './lp_solutions/grafo115.30.sol'

